.old/.old_results_backup1/mps/Fattahi_setup_05.mps
NAME F-JSSP-SDST
ROWS
 N  OBJ
 E  c0      
 E  c1      
 E  c2      
 E  c3      
 E  c4      
 E  c5      
 L  c6      
 L  c7      
 L  c8      
 L  c9      
 L  c10     
 L  c11     
 L  c12     
 L  c13     
 L  c14     
 L  c15     
 L  c16     
 L  c17     
 G  c18     
 G  c19     
 G  c20     
 G  c21     
 G  c22     
 G  c23     
 G  c24     
 G  c25     
 G  c26     
 G  c27     
 G  c28     
 G  c29     
 G  c30     
 G  c31     
 G  c32     
 G  c33     
 G  c34     
 G  c35     
 G  c36     
 G  c37     
 G  c38     
 G  c39     
 G  c40     
 G  c41     
 G  c42     
 G  c43     
 G  c44     
 G  c45     
 G  c46     
 G  c47     
 G  c48     
 G  c49     
 G  c50     
 G  c51     
 G  c52     
 G  c53     
 G  c54     
 G  c55     
 G  c56     
 G  c57     
 G  c58     
 G  c59     
 G  c60     
 G  c61     
 G  c62     
 G  c63     
 G  c64     
 G  c65     
 G  c66     
 G  c67     
 G  c68     
 G  c69     
 G  c70     
 G  c71     
 G  c72     
 G  c73     
 G  c74     
 G  c75     
 G  c76     
 G  c77     
 G  c78     
 G  c79     
 G  c80     
 G  c81     
 G  c82     
 G  c83     
 G  c84     
 G  c85     
 G  c86     
 E  c87     
COLUMNS
    MARKER    'MARKER'                 'INTORG'
    B0(14)    c0        1
    B0(14)    c6        -71000
    B0(14)    c18       -43
    B0(14)    c19       -71043
    B0(14)    c20       -43
    B0(14)    c27       -71000
    B0(14)    c28       -71000
    B0(14)    c31       -71000
    B0(14)    c32       -71000
    B0(14)    c35       -71000
    B0(14)    c36       -71000
    B0(14)    c39       -71000
    B0(14)    c40       -71000
    B0(14)    c87       -43
    B1(14)    c0        1
    B1(14)    c7        -71000
    B1(14)    c18       -36
    B1(14)    c19       -36
    B1(14)    c20       -71036
    B1(14)    c29       -71000
    B1(14)    c30       -71000
    B1(14)    c33       -71000
    B1(14)    c34       -71000
    B1(14)    c37       -71000
    B1(14)    c38       -71000
    B1(14)    c41       -71000
    B1(14)    c42       -71000
    B1(14)    c87       -36
    B2(12)    c1        1
    B2(12)    c8        -71000
    B2(12)    c19       -71000
    B2(12)    c43       -71000
    B2(12)    c44       -71000
    B2(12)    c47       -71000
    B2(12)    c48       -71000
    B2(12)    c51       -71000
    B2(12)    c52       -71000
    B2(12)    c55       -71000
    B2(12)    c56       -71000
    B2(12)    c87       -64
    B3(12)    c1        1
    B3(12)    c9        -71000
    B3(12)    c20       -71000
    B3(12)    c45       -71000
    B3(12)    c46       -71000
    B3(12)    c49       -71000
    B3(12)    c50       -71000
    B3(12)    c53       -71000
    B3(12)    c54       -71000
    B3(12)    c57       -71000
    B3(12)    c58       -71000
    B3(12)    c87       -71
    B4(14)    c2        1
    B4(14)    c10       -71000
    B4(14)    c21       -34
    B4(14)    c22       -71034
    B4(14)    c23       -34
    B4(14)    c27       -71000
    B4(14)    c28       -71000
    B4(14)    c43       -71000
    B4(14)    c44       -71000
    B4(14)    c59       -71000
    B4(14)    c60       -71000
    B4(14)    c63       -71000
    B4(14)    c64       -71000
    B4(14)    c87       -34
    B5(14)    c2        1
    B5(14)    c11       -71000
    B5(14)    c21       -53
    B5(14)    c22       -53
    B5(14)    c23       -71053
    B5(14)    c29       -71000
    B5(14)    c30       -71000
    B5(14)    c45       -71000
    B5(14)    c46       -71000
    B5(14)    c61       -71000
    B5(14)    c62       -71000
    B5(14)    c65       -71000
    B5(14)    c66       -71000
    B5(14)    c87       -53
    B6(12)    c3        1
    B6(12)    c12       -71000
    B6(12)    c22       -71000
    B6(12)    c31       -71000
    B6(12)    c32       -71000
    B6(12)    c47       -71000
    B6(12)    c48       -71000
    B6(12)    c67       -71000
    B6(12)    c68       -71000
    B6(12)    c71       -71000
    B6(12)    c72       -71000
    B6(12)    c87       -36
    B7(12)    c3        1
    B7(12)    c13       -71000
    B7(12)    c23       -71000
    B7(12)    c33       -71000
    B7(12)    c34       -71000
    B7(12)    c49       -71000
    B7(12)    c50       -71000
    B7(12)    c69       -71000
    B7(12)    c70       -71000
    B7(12)    c73       -71000
    B7(12)    c74       -71000
    B7(12)    c87       -21
    B8(14)    c4        1
    B8(14)    c14       -71000
    B8(14)    c24       -21
    B8(14)    c25       -71021
    B8(14)    c26       -21
    B8(14)    c35       -71000
    B8(14)    c36       -71000
    B8(14)    c51       -71000
    B8(14)    c52       -71000
    B8(14)    c59       -71000
    B8(14)    c60       -71000
    B8(14)    c67       -71000
    B8(14)    c68       -71000
    B8(14)    c87       -21
    B9(14)    c4        1
    B9(14)    c15       -71000
    B9(14)    c24       -35
    B9(14)    c25       -35
    B9(14)    c26       -71035
    B9(14)    c37       -71000
    B9(14)    c38       -71000
    B9(14)    c53       -71000
    B9(14)    c54       -71000
    B9(14)    c61       -71000
    B9(14)    c62       -71000
    B9(14)    c69       -71000
    B9(14)    c70       -71000
    B9(14)    c87       -35
    B10(12)   c5        1
    B10(12)   c16       -71000
    B10(12)   c25       -71000
    B10(12)   c39       -71000
    B10(12)   c40       -71000
    B10(12)   c55       -71000
    B10(12)   c56       -71000
    B10(12)   c63       -71000
    B10(12)   c64       -71000
    B10(12)   c71       -71000
    B10(12)   c72       -71000
    B10(12)   c87       -43
    B11(12)   c5        1
    B11(12)   c17       -71000
    B11(12)   c26       -71000
    B11(12)   c41       -71000
    B11(12)   c42       -71000
    B11(12)   c57       -71000
    B11(12)   c58       -71000
    B11(12)   c65       -71000
    B11(12)   c66       -71000
    B11(12)   c73       -71000
    B11(12)   c74       -71000
    B11(12)   c87       -37
    B12(2)    c27       -71000
    B12(2)    c28       71000
    B13(2)    c29       -71000
    B13(2)    c30       71000
    B14(2)    c31       -71000
    B14(2)    c32       71000
    B15(2)    c33       -71000
    B15(2)    c34       71000
    B16(2)    c35       -71000
    B16(2)    c36       71000
    B17(2)    c37       -71000
    B17(2)    c38       71000
    B18(2)    c39       -71000
    B18(2)    c40       71000
    B19(2)    c41       -71000
    B19(2)    c42       71000
    B20(2)    c43       -71000
    B20(2)    c44       71000
    B21(2)    c45       -71000
    B21(2)    c46       71000
    B22(2)    c47       -71000
    B22(2)    c48       71000
    B23(2)    c49       -71000
    B23(2)    c50       71000
    B24(2)    c51       -71000
    B24(2)    c52       71000
    B25(2)    c53       -71000
    B25(2)    c54       71000
    B26(2)    c55       -71000
    B26(2)    c56       71000
    B27(2)    c57       -71000
    B27(2)    c58       71000
    B28(2)    c59       -71000
    B28(2)    c60       71000
    B29(2)    c61       -71000
    B29(2)    c62       71000
    B30(2)    c63       -71000
    B30(2)    c64       71000
    B31(2)    c65       -71000
    B31(2)    c66       71000
    B32(2)    c67       -71000
    B32(2)    c68       71000
    B33(2)    c69       -71000
    B33(2)    c70       71000
    B34(2)    c71       -71000
    B34(2)    c72       71000
    B35(2)    c73       -71000
    B35(2)    c74       71000
    MARKER    'MARKER'                 'INTEND'
    C36(14)   c6        1
    C36(14)   c18       -1
    C36(14)   c19       -1
    C36(14)   c20       -1
    C36(14)   c27       1
    C36(14)   c28       -1
    C36(14)   c31       1
    C36(14)   c32       -1
    C36(14)   c35       1
    C36(14)   c36       -1
    C36(14)   c39       1
    C36(14)   c40       -1
    C36(14)   c75       1
    C36(14)   c87       -1
    C37(14)   c7        1
    C37(14)   c18       -1
    C37(14)   c19       -1
    C37(14)   c20       -1
    C37(14)   c29       1
    C37(14)   c30       -1
    C37(14)   c33       1
    C37(14)   c34       -1
    C37(14)   c37       1
    C37(14)   c38       -1
    C37(14)   c41       1
    C37(14)   c42       -1
    C37(14)   c76       1
    C37(14)   c87       -1
    C38(14)   c8        1
    C38(14)   c18       1
    C38(14)   c19       1
    C38(14)   c20       1
    C38(14)   c43       1
    C38(14)   c44       -1
    C38(14)   c47       1
    C38(14)   c48       -1
    C38(14)   c51       1
    C38(14)   c52       -1
    C38(14)   c55       1
    C38(14)   c56       -1
    C38(14)   c77       1
    C38(14)   c87       -1
    C39(14)   c9        1
    C39(14)   c18       1
    C39(14)   c19       1
    C39(14)   c20       1
    C39(14)   c45       1
    C39(14)   c46       -1
    C39(14)   c49       1
    C39(14)   c50       -1
    C39(14)   c53       1
    C39(14)   c54       -1
    C39(14)   c57       1
    C39(14)   c58       -1
    C39(14)   c78       1
    C39(14)   c87       -1
    C40(14)   c10       1
    C40(14)   c21       -1
    C40(14)   c22       -1
    C40(14)   c23       -1
    C40(14)   c27       -1
    C40(14)   c28       1
    C40(14)   c43       -1
    C40(14)   c44       1
    C40(14)   c59       1
    C40(14)   c60       -1
    C40(14)   c63       1
    C40(14)   c64       -1
    C40(14)   c79       1
    C40(14)   c87       -1
    C41(14)   c11       1
    C41(14)   c21       -1
    C41(14)   c22       -1
    C41(14)   c23       -1
    C41(14)   c29       -1
    C41(14)   c30       1
    C41(14)   c45       -1
    C41(14)   c46       1
    C41(14)   c61       1
    C41(14)   c62       -1
    C41(14)   c65       1
    C41(14)   c66       -1
    C41(14)   c80       1
    C41(14)   c87       -1
    C42(14)   c12       1
    C42(14)   c21       1
    C42(14)   c22       1
    C42(14)   c23       1
    C42(14)   c31       -1
    C42(14)   c32       1
    C42(14)   c47       -1
    C42(14)   c48       1
    C42(14)   c67       1
    C42(14)   c68       -1
    C42(14)   c71       1
    C42(14)   c72       -1
    C42(14)   c81       1
    C42(14)   c87       -1
    C43(14)   c13       1
    C43(14)   c21       1
    C43(14)   c22       1
    C43(14)   c23       1
    C43(14)   c33       -1
    C43(14)   c34       1
    C43(14)   c49       -1
    C43(14)   c50       1
    C43(14)   c69       1
    C43(14)   c70       -1
    C43(14)   c73       1
    C43(14)   c74       -1
    C43(14)   c82       1
    C43(14)   c87       -1
    C44(14)   c14       1
    C44(14)   c24       -1
    C44(14)   c25       -1
    C44(14)   c26       -1
    C44(14)   c35       -1
    C44(14)   c36       1
    C44(14)   c51       -1
    C44(14)   c52       1
    C44(14)   c59       -1
    C44(14)   c60       1
    C44(14)   c67       -1
    C44(14)   c68       1
    C44(14)   c83       1
    C44(14)   c87       -1
    C45(14)   c15       1
    C45(14)   c24       -1
    C45(14)   c25       -1
    C45(14)   c26       -1
    C45(14)   c37       -1
    C45(14)   c38       1
    C45(14)   c53       -1
    C45(14)   c54       1
    C45(14)   c61       -1
    C45(14)   c62       1
    C45(14)   c69       -1
    C45(14)   c70       1
    C45(14)   c84       1
    C45(14)   c87       -1
    C46(14)   c16       1
    C46(14)   c24       1
    C46(14)   c25       1
    C46(14)   c26       1
    C46(14)   c39       -1
    C46(14)   c40       1
    C46(14)   c55       -1
    C46(14)   c56       1
    C46(14)   c63       -1
    C46(14)   c64       1
    C46(14)   c71       -1
    C46(14)   c72       1
    C46(14)   c85       1
    C46(14)   c87       -1
    C47(14)   c17       1
    C47(14)   c24       1
    C47(14)   c25       1
    C47(14)   c26       1
    C47(14)   c41       -1
    C47(14)   c42       1
    C47(14)   c57       -1
    C47(14)   c58       1
    C47(14)   c65       -1
    C47(14)   c66       1
    C47(14)   c73       -1
    C47(14)   c74       1
    C47(14)   c86       1
    C47(14)   c87       -1
    C48(1)    OBJ       1
    C48(1)    c87       1
RHS
    RHS1      c0        1
    RHS1      c1        1
    RHS1      c2        1
    RHS1      c3        1
    RHS1      c4        1
    RHS1      c5        1
    RHS1      c19       -141997
    RHS1      c20       -141995
    RHS1      c22       -141995
    RHS1      c23       -141997
    RHS1      c25       -141996
    RHS1      c26       -141997
    RHS1      c27       -212963
    RHS1      c28       -141953
    RHS1      c29       -212943
    RHS1      c30       -141961
    RHS1      c31       -212960
    RHS1      c32       -141953
    RHS1      c33       -212976
    RHS1      c34       -141961
    RHS1      c35       -212975
    RHS1      c36       -141954
    RHS1      c37       -212961
    RHS1      c38       -141961
    RHS1      c39       -212954
    RHS1      c40       -141953
    RHS1      c41       -212959
    RHS1      c42       -141961
    RHS1      c43       -212962
    RHS1      c44       -141932
    RHS1      c45       -212944
    RHS1      c46       -141926
    RHS1      c47       -212961
    RHS1      c48       -141933
    RHS1      c49       -212976
    RHS1      c50       -141924
    RHS1      c51       -212976
    RHS1      c52       -141933
    RHS1      c53       -212960
    RHS1      c54       -141925
    RHS1      c55       -212952
    RHS1      c56       -141932
    RHS1      c57       -212959
    RHS1      c58       -141926
    RHS1      c59       -212976
    RHS1      c60       -141962
    RHS1      c61       -212961
    RHS1      c62       -141944
    RHS1      c63       -212954
    RHS1      c64       -141963
    RHS1      c65       -212959
    RHS1      c66       -141944
    RHS1      c67       -212975
    RHS1      c68       -141961
    RHS1      c69       -212960
    RHS1      c70       -141975
    RHS1      c71       -212953
    RHS1      c72       -141961
    RHS1      c73       -212959
    RHS1      c74       -141976
BOUNDS
 BV BND1      B0(14)  
 BV BND1      B1(14)  
 BV BND1      B2(12)  
 BV BND1      B3(12)  
 BV BND1      B4(14)  
 BV BND1      B5(14)  
 BV BND1      B6(12)  
 BV BND1      B7(12)  
 BV BND1      B8(14)  
 BV BND1      B9(14)  
 BV BND1      B10(12) 
 BV BND1      B11(12) 
 BV BND1      B12(2)  
 BV BND1      B13(2)  
 BV BND1      B14(2)  
 BV BND1      B15(2)  
 BV BND1      B16(2)  
 BV BND1      B17(2)  
 BV BND1      B18(2)  
 BV BND1      B19(2)  
 BV BND1      B20(2)  
 BV BND1      B21(2)  
 BV BND1      B22(2)  
 BV BND1      B23(2)  
 BV BND1      B24(2)  
 BV BND1      B25(2)  
 BV BND1      B26(2)  
 BV BND1      B27(2)  
 BV BND1      B28(2)  
 BV BND1      B29(2)  
 BV BND1      B30(2)  
 BV BND1      B31(2)  
 BV BND1      B32(2)  
 BV BND1      B33(2)  
 BV BND1      B34(2)  
 BV BND1      B35(2)  
ENDATA
