.old/.old_results_backup1/sol/Fattahi_setup_05.sol
# Solution for model F-JSSP-SDST
# Objective value = 415
B0(14) 0
B1(14) 1
B2(12) 1
B3(12) 0
B4(14) 1
B5(14) 0
B6(12) 0
B7(12) 1
B8(14) 1
B9(14) 0
B10(12) 0
B11(12) 1
B12(2) 0
B13(2) 0
B14(2) 0
B15(2) 0
B16(2) 0
B17(2) 0
B18(2) 0
B19(2) 0
B20(2) 1
B21(2) 0
B22(2) 0
B23(2) 0
B24(2) 1
B25(2) 0
B26(2) 0
B27(2) 0
B28(2) 0
B29(2) 0
B30(2) 0
B31(2) 0
B32(2) 0
B33(2) 0
B34(2) 0
B35(2) 0
C36(14) 0
C37(14) 0
C38(14) 62
C39(14) 0
C40(14) 0
C41(14) 0
C42(14) 0
C43(14) 39
C44(14) 38
C45(14) 0
C46(14) 0
C47(14) 63
C48(1) 415
