results/log/Fattahi_setup_05.log

Gurobi 10.0.1 (win64) logging started Wed Apr 12 07:35:27 2023

Set parameter LogFile to value "results/log/Fattahi_setup_05.log"
Gurobi Optimizer version 10.0.1 build v10.0.1rc0 (win64)

CPU model: AMD Ryzen 7 3700X 8-Core Processor, instruction set [SSE2|AVX|AVX2]
Thread count: 8 physical cores, 16 logical processors, using up to 16 threads

Optimize a model with 88 rows, 49 columns and 373 nonzeros
Model fingerprint: 0xb1856051
Variable types: 13 continuous, 36 integer (36 binary)
Coefficient statistics:
  Matrix range     [1e+00, 7e+04]
  Objective range  [1e+00, 1e+00]
  Bounds range     [1e+00, 1e+00]
  RHS range        [1e+00, 2e+05]
Presolve removed 19 rows and 7 columns
Presolve time: 0.00s
Presolved: 69 rows, 42 columns, 315 nonzeros
Variable types: 12 continuous, 30 integer (30 binary)
Found heuristic solution: objective 485.0000000

Root relaxation: objective 3.040000e+02, 11 iterations, 0.00 seconds (0.00 work units)

    Nodes    |    Current Node    |     Objective Bounds      |     Work
 Expl Unexpl |  Obj  Depth IntInf | Incumbent    BestBd   Gap | It/Node Time

     0     0  304.00000    0    5  485.00000  304.00000  37.3%     -    0s
H    0     0                     415.0000000  304.00000  26.7%     -    0s
     0     0  304.01180    0    9  415.00000  304.01180  26.7%     -    0s
     0     0  326.32500    0    7  415.00000  326.32500  21.4%     -    0s
     0     0  343.00003    0    7  415.00000  343.00003  17.3%     -    0s
     0     0  343.41264    0   10  415.00000  343.41264  17.2%     -    0s
     0     0  344.23810    0   10  415.00000  344.23810  17.1%     -    0s
     0     0  348.00009    0    7  415.00000  348.00009  16.1%     -    0s
     0     0  348.00408    0    6  415.00000  348.00408  16.1%     -    0s
     0     0  348.00408    0    6  415.00000  348.00408  16.1%     -    0s
     0     0  364.00331    0    8  415.00000  364.00331  12.3%     -    0s
     0     0  385.26439    0    8  415.00000  385.26439  7.17%     -    0s

Cutting planes:
  Cover: 1
  Implied bound: 2
  MIR: 5
  Flow cover: 16

Explored 1 nodes (92 simplex iterations) in 0.02 seconds (0.01 work units)
Thread count was 16 (of 16 available processors)

Solution count 2: 415 485 

Optimal solution found (tolerance 1.00e-04)
Best objective 4.150000000000e+02, best bound 4.149999999994e+02, gap 0.0000%
Warning: variable name "y[job:0, stage:0, machine:1]" has a space
Warning: constraint name "precedence between 1,0 to 0,0 if x_[j,l,h,z,i]=1" has a space
Warning: to let Gurobi read it back, use rlp format
Warning: variable name "y[job:0, stage:0, machine:1]" has a space
Warning: constraint name "precedence between 1,0 to 0,0 if x_[j,l,h,z,i]=1" has a space
Warning: default variable names used to write mps file
Warning: default constraint names used to write mps file
Warning: variable name "y[job:0, stage:0, machine:1]" has a space
Warning: default variable names used to write solution file
